100
32
12
27
10
10
3
31
2
28
4
6
7
11
5
7
15
12
27
11
10
30
1
7
31
28
30
13
13
18
22
17
30
21
7
7
29
8
20
11
9
23
5
23
30
32
12
22
27
24
12
13
22
30
5
14
7
14
3
13
27
31
17
32
2
21
17
20
5
7
3
11
5
23
21
6
4
12
29
20
9
19
17
31
16
5
7
1
25
4
30
32
9
21
2
4
5
20
23
10
8
1